p cnf 46 47
-2 25 0 
-3 26 0 
-2 27 0 
-10 1 4 9 14 15 16 17 19 22 24 28 0 
-10 1 4 9 14 15 16 17 19 22 24 29 0 
-12 25 0 
-13 27 0 
-11 30 0 
-10 1 4 9 14 15 16 17 19 22 24 31 0 
-4 1 9 10 14 15 16 17 19 22 24 32 0 
-14 1 4 9 10 15 16 17 19 22 24 32 0 
-15 1 4 9 10 14 16 17 19 22 24 32 0 
-9 1 4 10 14 15 16 17 19 22 24 32 0 
-16 1 4 9 10 14 15 17 19 22 24 32 0 
-17 1 4 9 10 14 15 16 19 22 24 32 0 
-18 -19 1 4 9 10 14 15 16 17 22 24 33 0 
-20 -19 1 4 9 10 14 15 16 17 22 24 34 0 
-21 6 -19 1 4 9 10 14 15 16 17 22 24 35 0 
-19 1 4 9 10 14 15 16 17 22 24 36 0 
-19 1 4 9 10 14 15 16 17 22 24 37 0 
-19 1 4 9 10 14 15 16 17 22 24 38 0 
-19 1 4 9 10 14 15 16 17 22 24 39 0 
-19 1 4 9 10 14 15 16 17 22 24 40 0 
-19 1 4 9 10 14 15 16 17 22 24 41 0 
-19 1 4 9 10 14 15 16 17 22 24 42 0 
-20 -22 1 4 9 10 14 15 16 17 19 24 34 0 
-23 -22 1 4 9 10 14 15 16 17 19 24 43 0 
-20 -24 1 4 9 10 14 15 16 17 19 22 43 0 
-24 1 4 9 10 14 15 16 17 19 22 38 0 
-22 1 4 9 10 14 15 16 17 19 24 38 0 
-20 27 0 
-22 1 4 9 10 14 15 16 17 19 24 40 0 
-24 1 4 9 10 14 15 16 17 19 22 40 0 
-22 1 4 9 10 14 15 16 17 19 24 44 0 
-24 1 4 9 10 14 15 16 17 19 22 44 0 
-22 1 4 9 10 14 15 16 17 19 24 33 0 
-24 1 4 9 10 14 15 16 17 19 22 41 0 
-24 1 4 9 10 14 15 16 17 19 22 45 0 
-22 1 4 9 10 14 15 16 17 19 24 45 0 
-22 1 4 9 10 14 15 16 17 19 24 37 0 
-24 1 4 9 10 14 15 16 17 19 22 36 0 
-22 1 4 9 10 14 15 16 17 19 24 36 0 
-20 25 0 
-22 1 4 9 10 14 15 16 17 19 24 39 0 
-22 1 4 9 10 14 15 16 17 19 24 46 0 
-24 1 4 9 10 14 15 16 17 19 22 46 0 
-24 1 4 9 10 14 15 16 17 19 22 39 0 
